wcsp 50 3 251 512409557603043100
3 3 3 3 3 3 3 3 3 3 3 3 3 3 3 3 3 3 3 3 3 3 3 3 3 3 3 3 3 3 3 3 3 3 3 3 3 3 3 3 3 3 3 3 3 3 3 3 3 3
2 3 13 0 9
0 0 1
0 1 0
0 2 3
1 0 0
1 1 0
1 2 2
2 0 3
2 1 0
2 2 2
2 1 29 0 9
0 0 0
0 1 3
0 2 1
1 0 0
1 1 1
1 2 3
2 0 0
2 1 0
2 2 2
2 5 12 0 9
0 0 0
0 1 2
0 2 0
1 0 2
1 1 0
1 2 1
2 0 1
2 1 1
2 2 0
2 3 41 0 9
0 0 3
0 1 3
0 2 0
1 0 0
1 1 2
1 2 0
2 0 2
2 1 1
2 2 0
2 5 19 0 9
0 0 3
0 1 0
0 2 0
1 0 1
1 1 1
1 2 2
2 0 0
2 1 2
2 2 0
2 6 12 0 9
0 0 0
0 1 2
0 2 3
1 0 0
1 1 0
1 2 1
2 0 1
2 1 0
2 2 2
2 25 27 0 9
0 0 2
0 1 2
0 2 0
1 0 2
1 1 0
1 2 0
2 0 2
2 1 0
2 2 2
2 3 26 0 9
0 0 3
0 1 0
0 2 0
1 0 1
1 1 3
1 2 0
2 0 2
2 1 0
2 2 1
2 11 18 0 9
0 0 0
0 1 0
0 2 3
1 0 3
1 1 0
1 2 1
2 0 1
2 1 3
2 2 0
2 21 32 0 9
0 0 3
0 1 0
0 2 0
1 0 3
1 1 1
1 2 0
2 0 3
2 1 0
2 2 1
2 25 43 0 9
0 0 1
0 1 0
0 2 2
1 0 2
1 1 2
1 2 0
2 0 0
2 1 1
2 2 0
2 12 42 0 9
0 0 2
0 1 1
0 2 0
1 0 0
1 1 2
1 2 0
2 0 0
2 1 3
2 2 1
2 0 47 0 9
0 0 0
0 1 1
0 2 1
1 0 1
1 1 0
1 2 0
2 0 0
2 1 3
2 2 3
2 16 45 0 9
0 0 0
0 1 0
0 2 2
1 0 3
1 1 1
1 2 0
2 0 0
2 1 1
2 2 2
2 8 27 0 9
0 0 0
0 1 0
0 2 1
1 0 2
1 1 2
1 2 2
2 0 1
2 1 0
2 2 0
2 25 40 0 9
0 0 0
0 1 3
0 2 0
1 0 0
1 1 2
1 2 3
2 0 0
2 1 2
2 2 1
2 30 32 0 9
0 0 3
0 1 3
0 2 2
1 0 3
1 1 0
1 2 0
2 0 0
2 1 3
2 2 0
2 22 37 0 9
0 0 3
0 1 1
0 2 0
1 0 0
1 1 3
1 2 0
2 0 1
2 1 1
2 2 0
2 16 20 0 9
0 0 3
0 1 2
0 2 0
1 0 0
1 1 0
1 2 2
2 0 0
2 1 3
2 2 2
2 41 48 0 9
0 0 3
0 1 0
0 2 3
1 0 2
1 1 3
1 2 0
2 0 0
2 1 1
2 2 0
2 3 22 0 9
0 0 0
0 1 2
0 2 0
1 0 0
1 1 1
1 2 1
2 0 0
2 1 1
2 2 1
2 4 37 0 9
0 0 0
0 1 0
0 2 2
1 0 0
1 1 2
1 2 3
2 0 2
2 1 2
2 2 0
2 20 31 0 9
0 0 3
0 1 3
0 2 0
1 0 0
1 1 2
1 2 3
2 0 0
2 1 0
2 2 2
2 39 40 0 9
0 0 0
0 1 0
0 2 0
1 0 0
1 1 1
1 2 2
2 0 2
2 1 3
2 2 2
2 15 35 0 9
0 0 2
0 1 0
0 2 3
1 0 1
1 1 1
1 2 0
2 0 0
2 1 0
2 2 2
2 34 42 0 9
0 0 2
0 1 0
0 2 1
1 0 0
1 1 1
1 2 0
2 0 2
2 1 0
2 2 1
2 18 31 0 9
0 0 0
0 1 0
0 2 2
1 0 2
1 1 1
1 2 0
2 0 1
2 1 0
2 2 2
2 1 6 0 9
0 0 3
0 1 0
0 2 3
1 0 0
1 1 0
1 2 3
2 0 0
2 1 3
2 2 2
2 19 23 0 9
0 0 0
0 1 0
0 2 0
1 0 3
1 1 0
1 2 3
2 0 2
2 1 3
2 2 3
2 11 41 0 9
0 0 0
0 1 0
0 2 0
1 0 2
1 1 0
1 2 2
2 0 3
2 1 2
2 2 3
2 1 18 0 9
0 0 1
0 1 0
0 2 2
1 0 0
1 1 3
1 2 0
2 0 1
2 1 2
2 2 0
2 7 10 0 9
0 0 1
0 1 0
0 2 2
1 0 0
1 1 0
1 2 3
2 0 1
2 1 0
2 2 2
2 28 29 0 9
0 0 0
0 1 0
0 2 1
1 0 2
1 1 0
1 2 0
2 0 2
2 1 3
2 2 2
2 24 27 0 9
0 0 0
0 1 0
0 2 3
1 0 3
1 1 1
1 2 0
2 0 3
2 1 2
2 2 0
2 20 45 0 9
0 0 3
0 1 0
0 2 1
1 0 2
1 1 3
1 2 1
2 0 0
2 1 0
2 2 0
2 5 9 0 9
0 0 0
0 1 3
0 2 0
1 0 1
1 1 2
1 2 3
2 0 0
2 1 0
2 2 2
2 25 39 0 9
0 0 0
0 1 3
0 2 0
1 0 3
1 1 3
1 2 0
2 0 1
2 1 0
2 2 1
2 0 18 0 9
0 0 3
0 1 2
0 2 0
1 0 0
1 1 3
1 2 0
2 0 0
2 1 1
2 2 3
2 21 43 0 9
0 0 1
0 1 2
0 2 0
1 0 0
1 1 1
1 2 0
2 0 2
2 1 3
2 2 0
2 17 20 0 9
0 0 1
0 1 1
0 2 0
1 0 3
1 1 0
1 2 0
2 0 3
2 1 0
2 2 2
2 27 30 0 9
0 0 3
0 1 0
0 2 0
1 0 3
1 1 1
1 2 0
2 0 3
2 1 2
2 2 0
2 5 18 0 9
0 0 1
0 1 0
0 2 3
1 0 3
1 1 3
1 2 1
2 0 0
2 1 0
2 2 0
2 36 43 0 9
0 0 0
0 1 1
0 2 3
1 0 3
1 1 0
1 2 2
2 0 1
2 1 0
2 2 0
2 6 49 0 9
0 0 1
0 1 2
0 2 1
1 0 0
1 1 3
1 2 0
2 0 0
2 1 0
2 2 1
2 36 39 0 9
0 0 0
0 1 3
0 2 0
1 0 1
1 1 0
1 2 0
2 0 1
2 1 1
2 2 2
2 14 15 0 9
0 0 3
0 1 0
0 2 0
1 0 3
1 1 0
1 2 2
2 0 0
2 1 2
2 2 1
2 0 5 0 9
0 0 1
0 1 0
0 2 3
1 0 0
1 1 0
1 2 1
2 0 3
2 1 3
2 2 0
2 7 36 0 9
0 0 3
0 1 3
0 2 2
1 0 0
1 1 3
1 2 0
2 0 0
2 1 3
2 2 0
2 0 12 0 9
0 0 0
0 1 2
0 2 0
1 0 2
1 1 1
1 2 0
2 0 0
2 1 2
2 2 2
2 27 46 0 9
0 0 3
0 1 2
0 2 0
1 0 0
1 1 2
1 2 0
2 0 1
2 1 0
2 2 1
2 40 42 0 9
0 0 3
0 1 2
0 2 0
1 0 0
1 1 1
1 2 0
2 0 2
2 1 0
2 2 2
2 15 37 0 9
0 0 3
0 1 2
0 2 0
1 0 0
1 1 1
1 2 0
2 0 3
2 1 0
2 2 3
2 4 17 0 9
0 0 1
0 1 3
0 2 2
1 0 2
1 1 0
1 2 0
2 0 2
2 1 0
2 2 0
2 6 16 0 9
0 0 2
0 1 2
0 2 0
1 0 0
1 1 1
1 2 2
2 0 0
2 1 0
2 2 3
2 32 43 0 9
0 0 3
0 1 0
0 2 2
1 0 0
1 1 2
1 2 3
2 0 0
2 1 1
2 2 0
2 7 43 0 9
0 0 3
0 1 3
0 2 1
1 0 0
1 1 0
1 2 0
2 0 1
2 1 0
2 2 3
2 39 49 0 9
0 0 3
0 1 0
0 2 0
1 0 0
1 1 1
1 2 0
2 0 2
2 1 2
2 2 2
2 26 40 0 9
0 0 0
0 1 1
0 2 0
1 0 0
1 1 1
1 2 2
2 0 3
2 1 2
2 2 0
2 3 37 0 9
0 0 1
0 1 3
0 2 1
1 0 0
1 1 0
1 2 1
2 0 1
2 1 0
2 2 0
2 2 29 0 9
0 0 0
0 1 0
0 2 1
1 0 0
1 1 1
1 2 0
2 0 1
2 1 1
2 2 2
2 39 41 0 9
0 0 0
0 1 1
0 2 3
1 0 1
1 1 0
1 2 1
2 0 0
2 1 0
2 2 2
2 6 42 0 9
0 0 0
0 1 3
0 2 1
1 0 0
1 1 0
1 2 2
2 0 3
2 1 0
2 2 1
2 4 9 0 9
0 0 0
0 1 0
0 2 1
1 0 1
1 1 3
1 2 0
2 0 3
2 1 0
2 2 1
2 0 22 0 9
0 0 3
0 1 3
0 2 3
1 0 0
1 1 0
1 2 3
2 0 0
2 1 2
2 2 0
2 23 35 0 9
0 0 0
0 1 0
0 2 1
1 0 1
1 1 3
1 2 1
2 0 0
2 1 0
2 2 3
2 19 29 0 9
0 0 3
0 1 1
0 2 0
1 0 1
1 1 2
1 2 2
2 0 0
2 1 0
2 2 0
2 4 27 0 9
0 0 1
0 1 1
0 2 0
1 0 0
1 1 1
1 2 1
2 0 3
2 1 0
2 2 0
2 11 21 0 9
0 0 0
0 1 0
0 2 0
1 0 3
1 1 3
1 2 3
2 0 0
2 1 1
2 2 3
2 24 29 0 9
0 0 0
0 1 1
0 2 1
1 0 0
1 1 0
1 2 2
2 0 3
2 1 0
2 2 3
2 33 43 0 9
0 0 0
0 1 3
0 2 1
1 0 1
1 1 0
1 2 3
2 0 0
2 1 3
2 2 0
2 4 24 0 9
0 0 2
0 1 2
0 2 0
1 0 1
1 1 3
1 2 0
2 0 1
2 1 0
2 2 0
2 3 10 0 9
0 0 3
0 1 1
0 2 0
1 0 3
1 1 0
1 2 2
2 0 2
2 1 0
2 2 0
2 1 41 0 9
0 0 0
0 1 3
0 2 0
1 0 0
1 1 2
1 2 3
2 0 0
2 1 2
2 2 1
2 37 47 0 9
0 0 0
0 1 0
0 2 1
1 0 1
1 1 3
1 2 1
2 0 0
2 1 1
2 2 0
2 15 29 0 9
0 0 0
0 1 3
0 2 0
1 0 3
1 1 0
1 2 1
2 0 2
2 1 0
2 2 1
2 38 47 0 9
0 0 1
0 1 0
0 2 2
1 0 2
1 1 0
1 2 0
2 0 1
2 1 3
2 2 0
2 12 45 0 9
0 0 3
0 1 0
0 2 1
1 0 0
1 1 1
1 2 0
2 0 2
2 1 3
2 2 0
2 28 41 0 9
0 0 2
0 1 0
0 2 3
1 0 0
1 1 0
1 2 3
2 0 0
2 1 3
2 2 1
2 41 49 0 9
0 0 0
0 1 0
0 2 0
1 0 1
1 1 0
1 2 2
2 0 1
2 1 2
2 2 2
2 27 45 0 9
0 0 0
0 1 1
0 2 0
1 0 0
1 1 1
1 2 2
2 0 0
2 1 3
2 2 2
2 0 7 0 9
0 0 2
0 1 3
0 2 1
1 0 2
1 1 2
1 2 0
2 0 0
2 1 0
2 2 0
2 19 48 0 9
0 0 0
0 1 1
0 2 0
1 0 0
1 1 1
1 2 3
2 0 0
2 1 1
2 2 1
2 23 40 0 9
0 0 2
0 1 2
0 2 0
1 0 1
1 1 1
1 2 0
2 0 2
2 1 0
2 2 0
2 3 48 0 9
0 0 0
0 1 0
0 2 3
1 0 3
1 1 0
1 2 1
2 0 0
2 1 1
2 2 1
2 17 26 0 9
0 0 2
0 1 0
0 2 0
1 0 0
1 1 2
1 2 3
2 0 3
2 1 0
2 2 3
2 22 35 0 9
0 0 1
0 1 2
0 2 2
1 0 0
1 1 0
1 2 0
2 0 3
2 1 2
2 2 0
2 45 47 0 9
0 0 1
0 1 3
0 2 0
1 0 0
1 1 1
1 2 2
2 0 0
2 1 3
2 2 0
2 3 5 0 9
0 0 3
0 1 0
0 2 1
1 0 1
1 1 2
1 2 0
2 0 0
2 1 2
2 2 0
2 8 19 0 9
0 0 3
0 1 2
0 2 0
1 0 0
1 1 3
1 2 0
2 0 2
2 1 0
2 2 2
2 4 8 0 9
0 0 0
0 1 0
0 2 1
1 0 1
1 1 3
1 2 0
2 0 1
2 1 0
2 2 1
2 3 32 0 9
0 0 0
0 1 0
0 2 2
1 0 0
1 1 2
1 2 1
2 0 1
2 1 0
2 2 2
2 7 47 0 9
0 0 0
0 1 3
0 2 3
1 0 1
1 1 0
1 2 3
2 0 0
2 1 1
2 2 0
2 4 39 0 9
0 0 2
0 1 3
0 2 0
1 0 3
1 1 0
1 2 0
2 0 3
2 1 0
2 2 2
2 22 30 0 9
0 0 0
0 1 1
0 2 1
1 0 0
1 1 0
1 2 1
2 0 1
2 1 0
2 2 2
2 34 44 0 9
0 0 3
0 1 1
0 2 0
1 0 1
1 1 0
1 2 3
2 0 0
2 1 2
2 2 0
2 8 17 0 9
0 0 3
0 1 2
0 2 0
1 0 0
1 1 3
1 2 2
2 0 0
2 1 3
2 2 0
2 11 27 0 9
0 0 0
0 1 0
0 2 1
1 0 0
1 1 3
1 2 2
2 0 2
2 1 0
2 2 1
2 8 44 0 9
0 0 0
0 1 2
0 2 0
1 0 0
1 1 3
1 2 0
2 0 3
2 1 1
2 2 2
2 5 13 0 9
0 0 0
0 1 1
0 2 2
1 0 3
1 1 0
1 2 0
2 0 3
2 1 2
2 2 0
2 8 12 0 9
0 0 0
0 1 2
0 2 1
1 0 0
1 1 2
1 2 2
2 0 0
2 1 0
2 2 2
2 33 49 0 9
0 0 0
0 1 1
0 2 3
1 0 0
1 1 0
1 2 2
2 0 2
2 1 0
2 2 2
2 20 21 0 9
0 0 3
0 1 0
0 2 1
1 0 0
1 1 2
1 2 0
2 0 2
2 1 1
2 2 0
2 0 45 0 9
0 0 0
0 1 2
0 2 1
1 0 1
1 1 0
1 2 3
2 0 0
2 1 0
2 2 2
2 25 44 0 9
0 0 0
0 1 2
0 2 1
1 0 0
1 1 3
1 2 0
2 0 3
2 1 1
2 2 0
2 28 35 0 9
0 0 0
0 1 3
0 2 0
1 0 2
1 1 1
1 2 2
2 0 0
2 1 1
2 2 0
2 25 46 0 9
0 0 1
0 1 3
0 2 2
1 0 0
1 1 3
1 2 0
2 0 0
2 1 3
2 2 0
2 6 18 0 9
0 0 1
0 1 0
0 2 0
1 0 0
1 1 1
1 2 3
2 0 1
2 1 0
2 2 2
2 41 44 0 9
0 0 0
0 1 3
0 2 0
1 0 0
1 1 0
1 2 3
2 0 3
2 1 1
2 2 3
2 29 47 0 9
0 0 0
0 1 2
0 2 0
1 0 2
1 1 2
1 2 3
2 0 0
2 1 3
2 2 0
2 27 40 0 9
0 0 0
0 1 0
0 2 0
1 0 3
1 1 1
1 2 2
2 0 2
2 1 2
2 2 0
2 10 11 0 9
0 0 1
0 1 1
0 2 0
1 0 1
1 1 0
1 2 2
2 0 0
2 1 1
2 2 0
2 23 44 0 9
0 0 3
0 1 0
0 2 0
1 0 0
1 1 2
1 2 0
2 0 1
2 1 3
2 2 2
2 6 34 0 9
0 0 1
0 1 0
0 2 1
1 0 3
1 1 1
1 2 2
2 0 0
2 1 0
2 2 0
2 14 36 0 9
0 0 0
0 1 0
0 2 1
1 0 1
1 1 2
1 2 0
2 0 1
2 1 1
2 2 0
2 16 46 0 9
0 0 0
0 1 0
0 2 1
1 0 1
1 1 3
1 2 0
2 0 0
2 1 2
2 2 2
2 6 30 0 9
0 0 0
0 1 0
0 2 1
1 0 1
1 1 0
1 2 1
2 0 0
2 1 3
2 2 2
2 10 29 0 9
0 0 0
0 1 3
0 2 3
1 0 3
1 1 0
1 2 2
2 0 2
2 1 0
2 2 0
2 10 12 0 9
0 0 0
0 1 3
0 2 0
1 0 1
1 1 0
1 2 0
2 0 1
2 1 3
2 2 2
2 22 31 0 9
0 0 3
0 1 3
0 2 1
1 0 0
1 1 0
1 2 0
2 0 0
2 1 2
2 2 3
2 18 30 0 9
0 0 0
0 1 2
0 2 3
1 0 3
1 1 0
1 2 3
2 0 1
2 1 0
2 2 0
2 15 26 0 9
0 0 0
0 1 1
0 2 0
1 0 1
1 1 0
1 2 1
2 0 0
2 1 1
2 2 2
2 36 46 0 9
0 0 0
0 1 2
0 2 3
1 0 1
1 1 1
1 2 0
2 0 0
2 1 1
2 2 0
2 11 45 0 9
0 0 0
0 1 0
0 2 1
1 0 2
1 1 2
1 2 0
2 0 0
2 1 1
2 2 1
2 7 18 0 9
0 0 0
0 1 1
0 2 0
1 0 2
1 1 0
1 2 3
2 0 3
2 1 3
2 2 0
2 18 27 0 9
0 0 0
0 1 1
0 2 2
1 0 0
1 1 2
1 2 0
2 0 1
2 1 1
2 2 0
2 4 26 0 9
0 0 0
0 1 3
0 2 1
1 0 3
1 1 0
1 2 0
2 0 0
2 1 2
2 2 3
2 14 35 0 9
0 0 3
0 1 1
0 2 3
1 0 0
1 1 1
1 2 0
2 0 0
2 1 1
2 2 0
2 25 48 0 9
0 0 0
0 1 3
0 2 2
1 0 2
1 1 2
1 2 0
2 0 0
2 1 1
2 2 0
2 38 40 0 9
0 0 0
0 1 2
0 2 0
1 0 1
1 1 1
1 2 3
2 0 0
2 1 2
2 2 0
2 40 47 0 9
0 0 0
0 1 0
0 2 2
1 0 0
1 1 3
1 2 1
2 0 3
2 1 0
2 2 3
2 11 40 0 9
0 0 1
0 1 0
0 2 3
1 0 3
1 1 3
1 2 0
2 0 2
2 1 0
2 2 0
2 8 28 0 9
0 0 0
0 1 1
0 2 0
1 0 3
1 1 0
1 2 0
2 0 2
2 1 1
2 2 2
2 5 17 0 9
0 0 0
0 1 1
0 2 0
1 0 3
1 1 0
1 2 3
2 0 0
2 1 3
2 2 2
2 42 48 0 9
0 0 1
0 1 0
0 2 0
1 0 0
1 1 1
1 2 0
2 0 1
2 1 1
2 2 1
2 20 44 0 9
0 0 0
0 1 0
0 2 1
1 0 2
1 1 0
1 2 3
2 0 2
2 1 0
2 2 1
2 31 34 0 9
0 0 1
0 1 1
0 2 0
1 0 0
1 1 0
1 2 1
2 0 0
2 1 3
2 2 2
2 8 31 0 9
0 0 3
0 1 3
0 2 0
1 0 0
1 1 2
1 2 0
2 0 1
2 1 3
2 2 0
2 22 24 0 9
0 0 2
0 1 2
0 2 1
1 0 0
1 1 2
1 2 2
2 0 0
2 1 0
2 2 0
2 10 13 0 9
0 0 1
0 1 0
0 2 0
1 0 1
1 1 2
1 2 2
2 0 1
2 1 0
2 2 0
2 23 38 0 9
0 0 0
0 1 0
0 2 0
1 0 0
1 1 3
1 2 3
2 0 3
2 1 2
2 2 1
2 6 11 0 9
0 0 1
0 1 0
0 2 1
1 0 2
1 1 0
1 2 0
2 0 0
2 1 3
2 2 1
2 30 31 0 9
0 0 0
0 1 0
0 2 1
1 0 2
1 1 2
1 2 3
2 0 0
2 1 0
2 2 1
2 15 40 0 9
0 0 2
0 1 0
0 2 3
1 0 1
1 1 0
1 2 0
2 0 3
2 1 0
2 2 2
2 35 37 0 9
0 0 3
0 1 2
0 2 0
1 0 2
1 1 0
1 2 0
2 0 2
2 1 2
2 2 0
2 20 37 0 9
0 0 0
0 1 1
0 2 3
1 0 0
1 1 2
1 2 0
2 0 0
2 1 2
2 2 1
2 4 13 0 9
0 0 0
0 1 0
0 2 1
1 0 0
1 1 3
1 2 2
2 0 3
2 1 2
2 2 0
2 11 34 0 9
0 0 3
0 1 0
0 2 2
1 0 1
1 1 0
1 2 2
2 0 0
2 1 1
2 2 0
2 32 47 0 9
0 0 0
0 1 0
0 2 1
1 0 0
1 1 1
1 2 3
2 0 0
2 1 1
2 2 1
2 26 37 0 9
0 0 0
0 1 2
0 2 1
1 0 1
1 1 2
1 2 2
2 0 0
2 1 0
2 2 0
2 12 30 0 9
0 0 2
0 1 1
0 2 1
1 0 0
1 1 2
1 2 2
2 0 0
2 1 0
2 2 0
2 5 10 0 9
0 0 0
0 1 2
0 2 3
1 0 3
1 1 0
1 2 1
2 0 0
2 1 0
2 2 1
2 24 38 0 9
0 0 2
0 1 2
0 2 0
1 0 3
1 1 0
1 2 0
2 0 2
2 1 3
2 2 0
2 35 40 0 9
0 0 1
0 1 0
0 2 3
1 0 0
1 1 1
1 2 0
2 0 2
2 1 0
2 2 2
2 9 13 0 9
0 0 2
0 1 0
0 2 3
1 0 1
1 1 1
1 2 3
2 0 0
2 1 0
2 2 0
2 21 42 0 9
0 0 0
0 1 0
0 2 0
1 0 1
1 1 1
1 2 1
2 0 0
2 1 1
2 2 3
2 25 28 0 9
0 0 2
0 1 1
0 2 2
1 0 1
1 1 0
1 2 0
2 0 3
2 1 0
2 2 0
2 8 34 0 9
0 0 0
0 1 3
0 2 1
1 0 0
1 1 2
1 2 3
2 0 0
2 1 3
2 2 0
2 11 23 0 9
0 0 2
0 1 1
0 2 1
1 0 3
1 1 0
1 2 0
2 0 0
2 1 2
2 2 0
2 11 48 0 9
0 0 1
0 1 0
0 2 0
1 0 1
1 1 2
1 2 1
2 0 3
2 1 0
2 2 0
2 27 49 0 9
0 0 1
0 1 3
0 2 3
1 0 0
1 1 3
1 2 0
2 0 0
2 1 0
2 2 3
2 13 31 0 9
0 0 0
0 1 3
0 2 0
1 0 1
1 1 0
1 2 1
2 0 2
2 1 0
2 2 3
2 10 17 0 9
0 0 0
0 1 2
0 2 2
1 0 0
1 1 1
1 2 2
2 0 1
2 1 0
2 2 0
2 15 41 0 9
0 0 1
0 1 0
0 2 1
1 0 1
1 1 0
1 2 1
2 0 1
2 1 0
2 2 0
2 4 35 0 9
0 0 0
0 1 2
0 2 2
1 0 0
1 1 1
1 2 2
2 0 0
2 1 3
2 2 0
2 32 49 0 9
0 0 3
0 1 0
0 2 2
1 0 0
1 1 3
1 2 3
2 0 0
2 1 0
2 2 3
2 0 9 0 9
0 0 0
0 1 2
0 2 0
1 0 0
1 1 1
1 2 0
2 0 1
2 1 2
2 2 1
2 22 26 0 9
0 0 0
0 1 2
0 2 0
1 0 0
1 1 2
1 2 2
2 0 0
2 1 1
2 2 1
2 22 49 0 9
0 0 0
0 1 3
0 2 2
1 0 0
1 1 0
1 2 1
2 0 2
2 1 2
2 2 0
2 26 48 0 9
0 0 0
0 1 2
0 2 0
1 0 0
1 1 3
1 2 3
2 0 3
2 1 0
2 2 2
2 12 32 0 9
0 0 2
0 1 1
0 2 0
1 0 2
1 1 0
1 2 1
2 0 1
2 1 0
2 2 0
2 2 24 0 9
0 0 1
0 1 3
0 2 0
1 0 1
1 1 3
1 2 0
2 0 0
2 1 2
2 2 0
2 1 5 0 9
0 0 0
0 1 0
0 2 2
1 0 1
1 1 1
1 2 1
2 0 3
2 1 0
2 2 0
2 11 20 0 9
0 0 2
0 1 0
0 2 2
1 0 3
1 1 0
1 2 0
2 0 3
2 1 0
2 2 2
2 15 48 0 9
0 0 0
0 1 3
0 2 2
1 0 0
1 1 3
1 2 1
2 0 0
2 1 3
2 2 0
2 11 16 0 9
0 0 2
0 1 0
0 2 1
1 0 0
1 1 3
1 2 1
2 0 0
2 1 0
2 2 3
2 12 38 0 9
0 0 2
0 1 0
0 2 0
1 0 0
1 1 1
1 2 2
2 0 0
2 1 3
2 2 1
2 10 36 0 9
0 0 0
0 1 2
0 2 2
1 0 3
1 1 0
1 2 2
2 0 0
2 1 0
2 2 3
2 4 22 0 9
0 0 3
0 1 2
0 2 3
1 0 1
1 1 0
1 2 1
2 0 0
2 1 0
2 2 0
2 15 27 0 9
0 0 0
0 1 2
0 2 0
1 0 2
1 1 1
1 2 0
2 0 1
2 1 0
2 2 1
2 19 37 0 9
0 0 0
0 1 2
0 2 0
1 0 0
1 1 0
1 2 2
2 0 2
2 1 2
2 2 2
2 30 43 0 9
0 0 0
0 1 1
0 2 0
1 0 0
1 1 1
1 2 1
2 0 0
2 1 2
2 2 1
2 5 21 0 9
0 0 0
0 1 0
0 2 1
1 0 0
1 1 0
1 2 2
2 0 1
2 1 1
2 2 1
2 0 14 0 9
0 0 0
0 1 1
0 2 3
1 0 0
1 1 0
1 2 3
2 0 0
2 1 1
2 2 3
2 7 9 0 9
0 0 0
0 1 0
0 2 2
1 0 0
1 1 0
1 2 3
2 0 2
2 1 2
2 2 1
2 2 9 0 9
0 0 0
0 1 2
0 2 2
1 0 2
1 1 0
1 2 0
2 0 0
2 1 1
2 2 1
2 3 44 0 9
0 0 3
0 1 2
0 2 0
1 0 0
1 1 2
1 2 0
2 0 2
2 1 2
2 2 0
2 30 40 0 9
0 0 3
0 1 2
0 2 3
1 0 0
1 1 1
1 2 0
2 0 0
2 1 3
2 2 0
2 20 34 0 9
0 0 1
0 1 0
0 2 2
1 0 0
1 1 0
1 2 1
2 0 0
2 1 1
2 2 3
2 3 19 0 9
0 0 2
0 1 0
0 2 0
1 0 3
1 1 2
1 2 0
2 0 0
2 1 1
2 2 1
2 1 12 0 9
0 0 3
0 1 0
0 2 0
1 0 0
1 1 0
1 2 2
2 0 3
2 1 3
2 2 1
2 19 27 0 9
0 0 0
0 1 3
0 2 3
1 0 2
1 1 0
1 2 0
2 0 2
2 1 3
2 2 0
2 24 47 0 9
0 0 1
0 1 0
0 2 0
1 0 3
1 1 1
1 2 1
2 0 3
2 1 0
2 2 0
2 31 44 0 9
0 0 2
0 1 2
0 2 0
1 0 0
1 1 0
1 2 2
2 0 2
2 1 0
2 2 3
2 20 33 0 9
0 0 0
0 1 3
0 2 2
1 0 1
1 1 0
1 2 0
2 0 3
2 1 1
2 2 0
2 20 42 0 9
0 0 3
0 1 3
0 2 1
1 0 0
1 1 1
1 2 1
2 0 0
2 1 0
2 2 0
2 44 47 0 9
0 0 1
0 1 0
0 2 0
1 0 2
1 1 3
1 2 1
2 0 0
2 1 1
2 2 0
2 14 20 0 9
0 0 3
0 1 0
0 2 2
1 0 0
1 1 1
1 2 1
2 0 0
2 1 0
2 2 3
2 11 26 0 9
0 0 2
0 1 0
0 2 2
1 0 1
1 1 0
1 2 0
2 0 0
2 1 1
2 2 3
2 32 39 0 9
0 0 1
0 1 0
0 2 1
1 0 0
1 1 0
1 2 2
2 0 1
2 1 1
2 2 0
2 15 38 0 9
0 0 1
0 1 0
0 2 2
1 0 0
1 1 0
1 2 1
2 0 3
2 1 2
2 2 0
1 0 512409557603043100 3
0 2
1 0
2 1
1 1 512409557603043100 3
0 1
1 0
2 1
1 2 512409557603043100 3
0 3
1 0
2 0
1 3 512409557603043100 3
0 2
1 0
2 2
1 4 512409557603043100 3
0 0
1 3
2 0
1 5 512409557603043100 3
0 2
1 2
2 0
1 6 512409557603043100 3
0 2
1 1
2 0
1 7 512409557603043100 3
0 0
1 2
2 0
1 8 512409557603043100 3
0 1
1 0
2 1
1 9 512409557603043100 3
0 0
1 3
2 1
1 10 512409557603043100 3
0 0
1 3
2 3
1 11 512409557603043100 3
0 2
1 0
2 1
1 12 512409557603043100 3
0 2
1 3
2 0
1 13 512409557603043100 3
0 0
1 2
2 3
1 14 512409557603043100 3
0 1
1 2
2 0
1 15 512409557603043100 3
0 0
1 1
2 3
1 16 512409557603043100 3
0 0
1 2
2 2
1 17 512409557603043100 3
0 0
1 0
2 3
1 18 512409557603043100 3
0 2
1 0
2 2
1 19 512409557603043100 3
0 0
1 2
2 1
1 20 512409557603043100 3
0 0
1 3
2 0
1 21 512409557603043100 3
0 0
1 3
2 1
1 22 512409557603043100 3
0 0
1 0
2 2
1 23 512409557603043100 3
0 1
1 1
2 0
1 24 512409557603043100 3
0 0
1 1
2 3
1 25 512409557603043100 3
0 0
1 3
2 0
1 26 512409557603043100 3
0 1
1 2
2 0
1 27 512409557603043100 3
0 2
1 0
2 1
1 28 512409557603043100 3
0 0
1 0
2 1
1 29 512409557603043100 3
0 0
1 3
2 2
1 30 512409557603043100 3
0 3
1 0
2 2
1 31 512409557603043100 3
0 0
1 1
2 0
1 32 512409557603043100 3
0 3
1 1
2 0
1 33 512409557603043100 3
0 2
1 1
2 0
1 34 512409557603043100 3
0 2
1 0
2 3
1 35 512409557603043100 3
0 0
1 2
2 2
1 36 512409557603043100 3
0 0
1 0
2 0
1 37 512409557603043100 3
0 0
1 0
2 0
1 38 512409557603043100 3
0 1
1 0
2 2
1 39 512409557603043100 3
0 0
1 0
2 0
1 40 512409557603043100 3
0 0
1 0
2 0
1 41 512409557603043100 3
0 1
1 3
2 0
1 42 512409557603043100 3
0 1
1 0
2 2
1 43 512409557603043100 3
0 1
1 0
2 0
1 44 512409557603043100 3
0 0
1 0
2 0
1 45 512409557603043100 3
0 3
1 0
2 0
1 46 512409557603043100 3
0 0
1 3
2 0
1 47 512409557603043100 3
0 3
1 2
2 0
1 48 512409557603043100 3
0 1
1 0
2 1
1 49 512409557603043100 3
0 1
1 0
2 1
0 29 0
